Assets/LKHProbs~/skull.77.tsp
NAME : GeneratedProblem
COMMENT : SVGCrosshatch
TYPE : TSP
DIMENSION : 25
EDGE_WEIGHT_TYPE : EUC_2D
NODE_COORD_SECTION
1 3500 3100
2 3600 3100
3 3600 3200
4 3600 3300
5 3700 3100
6 3700 3200
7 3700 3300
8 3700 3400
9 3700 3500
10 3800 3100
11 3800 3200
12 3900 3100
13 3900 3200
14 4500 3100
15 4500 3200
16 4500 3300
17 4500 3400
18 4500 3500
19 4500 3600
20 4500 3700
21 4600 3100
22 4600 3200
23 4600 3300
24 4600 3400
25 4600 3500
EOF
