Assets/LKHProbs~/skull.77.out.txt
NAME : GeneratedProblem.3766.tour
COMMENT : Length = 3766
COMMENT : Found by LKH [Keld Helsgaun] Sun Nov 25 13:18:02 2018
TYPE : TOUR
DIMENSION : 25
TOUR_SECTION
1
2
5
6
11
10
12
13
15
14
21
22
23
16
17
24
25
18
19
20
9
8
7
4
3
-1
EOF
